# Solution for model 2026-02-13_16-54-25
# Objective value = 2.7135259643444570e-02
# Best solution found in 10.30 seconds. Total optimization time: 10.90 seconds.
start_0 36
start_1 0
start_2 60
start_3 60
start_4 24
start_5 28
start_6 32
start_7 60
start_8 20
start_9 40
start_10 60
start_11 60
hold_0_1 0
hold_0_2 0
hold_0_3 0
hold_0_4 1
hold_0_5 0
hold_0_6 0
hold_0_7 0
hold_0_8 0
hold_0_9 0
hold_0_10 0
hold_0_11 0
hold_0_12 0
hold_0_13 0
hold_0_14 0
hold_0_15 0
hold_0_16 0
hold_0_17 0
hold_0_18 0
hold_0_19 0
hold_0_20 0
hold_0_21 0
hold_0_22 0
hold_0_23 0
hold_0_24 0
hold_0_25 0
hold_0_26 0
hold_0_27 0
hold_0_28 0
hold_0_29 0
hold_0_30 0
hold_0_31 0
hold_0_32 0
hold_1_1 0
hold_1_2 0
hold_1_3 0
hold_1_4 0
hold_1_5 0
hold_1_6 0
hold_1_7 0
hold_1_8 0
hold_1_9 0
hold_1_10 0
hold_1_11 0
hold_1_12 0
hold_1_13 0
hold_1_14 0
hold_1_15 0
hold_1_16 0
hold_1_17 0
hold_1_18 0
hold_1_19 0
hold_1_20 1
hold_1_21 0
hold_1_22 0
hold_1_23 0
hold_1_24 0
hold_1_25 0
hold_1_26 0
hold_1_27 0
hold_1_28 0
hold_1_29 0
hold_1_30 0
hold_1_31 0
hold_1_32 0
hold_2_1 0
hold_2_2 0
hold_2_3 0
hold_2_4 0
hold_2_5 0
hold_2_6 0
hold_2_7 0
hold_2_8 0
hold_2_9 0
hold_2_10 0
hold_2_11 0
hold_2_12 0
hold_2_13 0
hold_2_14 0
hold_2_15 0
hold_2_16 0
hold_2_17 0
hold_2_18 0
hold_2_19 0
hold_2_20 0
hold_2_21 0
hold_2_22 0
hold_2_23 0
hold_2_24 0
hold_2_25 0
hold_2_26 0
hold_2_27 0
hold_2_28 0
hold_2_29 0
hold_2_30 0
hold_2_31 0
hold_2_32 0
hold_3_1 0
hold_3_2 0
hold_3_3 0
hold_3_4 0
hold_3_5 0
hold_3_6 0
hold_3_7 0
hold_3_8 0
hold_3_9 0
hold_3_10 0
hold_3_11 0
hold_3_12 0
hold_3_13 0
hold_3_14 0
hold_3_15 0
hold_3_16 0
hold_3_17 0
hold_3_18 0
hold_3_19 0
hold_3_20 0
hold_3_21 0
hold_3_22 0
hold_3_23 0
hold_3_24 0
hold_3_25 0
hold_3_26 0
hold_3_27 0
hold_3_28 0
hold_3_29 0
hold_3_30 0
hold_3_31 0
hold_3_32 0
hold_4_1 0
hold_4_2 0
hold_4_3 0
hold_4_4 1
hold_4_5 0
hold_4_6 0
hold_4_7 0
hold_4_8 0
hold_4_9 0
hold_4_10 0
hold_4_11 0
hold_4_12 0
hold_4_13 0
hold_4_14 0
hold_4_15 0
hold_4_16 0
hold_4_17 0
hold_4_18 0
hold_4_19 0
hold_4_20 0
hold_4_21 0
hold_4_22 0
hold_4_23 0
hold_4_24 0
hold_4_25 0
hold_4_26 0
hold_4_27 0
hold_4_28 0
hold_4_29 0
hold_4_30 0
hold_4_31 0
hold_4_32 0
hold_5_1 0
hold_5_2 0
hold_5_3 0
hold_5_4 1
hold_5_5 0
hold_5_6 0
hold_5_7 0
hold_5_8 0
hold_5_9 0
hold_5_10 0
hold_5_11 0
hold_5_12 0
hold_5_13 0
hold_5_14 0
hold_5_15 0
hold_5_16 0
hold_5_17 0
hold_5_18 0
hold_5_19 0
hold_5_20 0
hold_5_21 0
hold_5_22 0
hold_5_23 0
hold_5_24 0
hold_5_25 0
hold_5_26 0
hold_5_27 0
hold_5_28 0
hold_5_29 0
hold_5_30 0
hold_5_31 0
hold_5_32 0
hold_6_1 0
hold_6_2 0
hold_6_3 0
hold_6_4 1
hold_6_5 0
hold_6_6 0
hold_6_7 0
hold_6_8 0
hold_6_9 0
hold_6_10 0
hold_6_11 0
hold_6_12 0
hold_6_13 0
hold_6_14 0
hold_6_15 0
hold_6_16 0
hold_6_17 0
hold_6_18 0
hold_6_19 0
hold_6_20 0
hold_6_21 0
hold_6_22 0
hold_6_23 0
hold_6_24 0
hold_6_25 0
hold_6_26 0
hold_6_27 0
hold_6_28 0
hold_6_29 0
hold_6_30 0
hold_6_31 0
hold_6_32 0
hold_7_1 0
hold_7_2 0
hold_7_3 0
hold_7_4 0
hold_7_5 0
hold_7_6 0
hold_7_7 0
hold_7_8 0
hold_7_9 0
hold_7_10 0
hold_7_11 0
hold_7_12 0
hold_7_13 0
hold_7_14 0
hold_7_15 0
hold_7_16 0
hold_7_17 0
hold_7_18 0
hold_7_19 0
hold_7_20 0
hold_7_21 0
hold_7_22 0
hold_7_23 0
hold_7_24 0
hold_7_25 0
hold_7_26 0
hold_7_27 0
hold_7_28 0
hold_7_29 0
hold_7_30 0
hold_7_31 0
hold_7_32 0
hold_8_1 0
hold_8_2 0
hold_8_3 0
hold_8_4 1
hold_8_5 0
hold_8_6 0
hold_8_7 0
hold_8_8 0
hold_8_9 0
hold_8_10 0
hold_8_11 0
hold_8_12 0
hold_8_13 0
hold_8_14 0
hold_8_15 0
hold_8_16 0
hold_8_17 0
hold_8_18 0
hold_8_19 0
hold_8_20 0
hold_8_21 0
hold_8_22 0
hold_8_23 0
hold_8_24 0
hold_8_25 0
hold_8_26 0
hold_8_27 0
hold_8_28 0
hold_8_29 0
hold_8_30 0
hold_8_31 0
hold_8_32 0
hold_9_1 0
hold_9_2 0
hold_9_3 0
hold_9_4 0
hold_9_5 0
hold_9_6 0
hold_9_7 0
hold_9_8 0
hold_9_9 0
hold_9_10 0
hold_9_11 0
hold_9_12 0
hold_9_13 0
hold_9_14 0
hold_9_15 0
hold_9_16 0
hold_9_17 0
hold_9_18 0
hold_9_19 0
hold_9_20 1
hold_9_21 0
hold_9_22 0
hold_9_23 0
hold_9_24 0
hold_9_25 0
hold_9_26 0
hold_9_27 0
hold_9_28 0
hold_9_29 0
hold_9_30 0
hold_9_31 0
hold_9_32 0
hold_10_1 0
hold_10_2 0
hold_10_3 0
hold_10_4 0
hold_10_5 0
hold_10_6 0
hold_10_7 0
hold_10_8 0
hold_10_9 0
hold_10_10 0
hold_10_11 0
hold_10_12 0
hold_10_13 0
hold_10_14 0
hold_10_15 0
hold_10_16 0
hold_10_17 0
hold_10_18 0
hold_10_19 0
hold_10_20 0
hold_10_21 0
hold_10_22 0
hold_10_23 0
hold_10_24 0
hold_10_25 0
hold_10_26 0
hold_10_27 0
hold_10_28 0
hold_10_29 0
hold_10_30 0
hold_10_31 0
hold_10_32 0
hold_11_1 0
hold_11_2 0
hold_11_3 0
hold_11_4 0
hold_11_5 0
hold_11_6 0
hold_11_7 0
hold_11_8 0
hold_11_9 0
hold_11_10 0
hold_11_11 0
hold_11_12 0
hold_11_13 0
hold_11_14 0
hold_11_15 0
hold_11_16 0
hold_11_17 0
hold_11_18 0
hold_11_19 0
hold_11_20 0
hold_11_21 0
hold_11_22 0
hold_11_23 0
hold_11_24 0
hold_11_25 0
hold_11_26 0
hold_11_27 0
hold_11_28 0
hold_11_29 0
hold_11_30 0
hold_11_31 0
hold_11_32 0
flow_source_nic_in_0 0
flow_nic_out_0_sink 0
flow_nic_out_0_nic_in_1 0
flow_nic_out_0_nic_in_2 0
flow_nic_out_0_nic_in_3 0
flow_nic_out_0_nic_in_4 0
flow_nic_out_0_nic_in_8 0
flow_nic_out_0_nic_in_9 5.5813953488372090e+02
flow_nic_out_0_nic_in_10 0
flow_nic_out_0_nic_in_11 0
flow_nic_in_0_0 5.5813953488372090e+02
flow_0_nic_out_0 5.5813953488372090e+02
flow_source_nic_in_1 5.5813953488372090e+02
flow_nic_out_1_sink 0
flow_nic_out_1_nic_in_0 0
flow_nic_out_1_nic_in_2 0
flow_nic_out_1_nic_in_3 0
flow_nic_out_1_nic_in_4 0
flow_nic_out_1_nic_in_8 5.5813953488372090e+02
flow_nic_out_1_nic_in_9 0
flow_nic_out_1_nic_in_10 0
flow_nic_out_1_nic_in_11 0
flow_nic_in_1_1 5.5813953488372090e+02
flow_1_nic_out_1 5.5813953488372090e+02
flow_source_nic_in_2 0
flow_nic_out_2_sink 0
flow_nic_out_2_nic_in_0 0
flow_nic_out_2_nic_in_1 0
flow_nic_out_2_nic_in_3 0
flow_nic_out_2_nic_in_4 0
flow_nic_out_2_nic_in_8 0
flow_nic_out_2_nic_in_9 0
flow_nic_out_2_nic_in_10 0
flow_nic_out_2_nic_in_11 0
flow_nic_in_2_2 0
flow_2_nic_out_2 0
flow_source_nic_in_3 0
flow_nic_out_3_sink 0
flow_nic_out_3_nic_in_0 0
flow_nic_out_3_nic_in_1 0
flow_nic_out_3_nic_in_2 0
flow_nic_out_3_nic_in_4 0
flow_nic_out_3_nic_in_8 0
flow_nic_out_3_nic_in_9 0
flow_nic_out_3_nic_in_10 0
flow_nic_out_3_nic_in_11 0
flow_nic_in_3_3 0
flow_3_nic_out_3 0
flow_source_nic_in_4 0
flow_nic_out_4_sink 0
flow_nic_out_4_nic_in_0 5.5813953488372090e+02
flow_nic_out_4_nic_in_1 0
flow_nic_out_4_nic_in_2 0
flow_nic_out_4_nic_in_3 0
flow_nic_out_4_nic_in_8 0
flow_nic_out_4_nic_in_9 0
flow_nic_out_4_nic_in_10 0
flow_nic_out_4_nic_in_11 0
flow_nic_in_4_4 5.5813953488372090e+02
flow_4_nic_out_4 0
flow_nic_in_4_5 0
flow_5_nic_out_4 0
flow_nic_in_4_6 0
flow_6_nic_out_4 5.5813953488372090e+02
flow_nic_in_4_7 0
flow_7_nic_out_4 0
flow_4_5 5.5813953488372090e+02
flow_4_6 0
flow_4_7 0
flow_5_4 0
flow_5_6 5.5813953488372090e+02
flow_5_7 0
flow_6_4 0
flow_6_5 0
flow_6_7 0
flow_7_4 0
flow_7_5 0
flow_7_6 0
flow_source_nic_in_8 0
flow_nic_out_8_sink 0
flow_nic_out_8_nic_in_0 0
flow_nic_out_8_nic_in_1 0
flow_nic_out_8_nic_in_2 0
flow_nic_out_8_nic_in_3 0
flow_nic_out_8_nic_in_4 5.5813953488372090e+02
flow_nic_out_8_nic_in_9 0
flow_nic_out_8_nic_in_10 0
flow_nic_out_8_nic_in_11 0
flow_nic_in_8_8 5.5813953488372090e+02
flow_8_nic_out_8 5.5813953488372090e+02
flow_source_nic_in_9 0
flow_nic_out_9_sink 5.5813953488372090e+02
flow_nic_out_9_nic_in_0 0
flow_nic_out_9_nic_in_1 0
flow_nic_out_9_nic_in_2 0
flow_nic_out_9_nic_in_3 0
flow_nic_out_9_nic_in_4 0
flow_nic_out_9_nic_in_8 0
flow_nic_out_9_nic_in_10 0
flow_nic_out_9_nic_in_11 0
flow_nic_in_9_9 5.5813953488372090e+02
flow_9_nic_out_9 5.5813953488372090e+02
flow_source_nic_in_10 0
flow_nic_out_10_sink 0
flow_nic_out_10_nic_in_0 0
flow_nic_out_10_nic_in_1 0
flow_nic_out_10_nic_in_2 0
flow_nic_out_10_nic_in_3 0
flow_nic_out_10_nic_in_4 0
flow_nic_out_10_nic_in_8 0
flow_nic_out_10_nic_in_9 0
flow_nic_out_10_nic_in_11 0
flow_nic_in_10_10 0
flow_10_nic_out_10 0
flow_source_nic_in_11 0
flow_nic_out_11_sink 0
flow_nic_out_11_nic_in_0 0
flow_nic_out_11_nic_in_1 0
flow_nic_out_11_nic_in_2 0
flow_nic_out_11_nic_in_3 0
flow_nic_out_11_nic_in_4 0
flow_nic_out_11_nic_in_8 0
flow_nic_out_11_nic_in_9 0
flow_nic_out_11_nic_in_10 0
flow_nic_in_11_11 0
flow_11_nic_out_11 0
switch_source_nic_in_0 0
switch_nic_out_0_sink 0
switch_nic_out_0_nic_in_1 0
switch_nic_out_0_nic_in_2 0
switch_nic_out_0_nic_in_3 0
switch_nic_out_0_nic_in_4 0
switch_nic_out_0_nic_in_8 0
switch_nic_out_0_nic_in_9 1
switch_nic_out_0_nic_in_10 0
switch_nic_out_0_nic_in_11 0
switch_nic_in_0_0 1
switch_0_nic_out_0 1
switch_source_nic_in_1 1
switch_nic_out_1_sink 0
switch_nic_out_1_nic_in_0 0
switch_nic_out_1_nic_in_2 0
switch_nic_out_1_nic_in_3 0
switch_nic_out_1_nic_in_4 0
switch_nic_out_1_nic_in_8 1
switch_nic_out_1_nic_in_9 0
switch_nic_out_1_nic_in_10 0
switch_nic_out_1_nic_in_11 0
switch_nic_in_1_1 1
switch_1_nic_out_1 1
switch_source_nic_in_2 0
switch_nic_out_2_sink 0
switch_nic_out_2_nic_in_0 0
switch_nic_out_2_nic_in_1 0
switch_nic_out_2_nic_in_3 0
switch_nic_out_2_nic_in_4 0
switch_nic_out_2_nic_in_8 0
switch_nic_out_2_nic_in_9 0
switch_nic_out_2_nic_in_10 0
switch_nic_out_2_nic_in_11 0
switch_nic_in_2_2 0
switch_2_nic_out_2 0
switch_source_nic_in_3 0
switch_nic_out_3_sink 0
switch_nic_out_3_nic_in_0 0
switch_nic_out_3_nic_in_1 0
switch_nic_out_3_nic_in_2 0
switch_nic_out_3_nic_in_4 0
switch_nic_out_3_nic_in_8 0
switch_nic_out_3_nic_in_9 0
switch_nic_out_3_nic_in_10 0
switch_nic_out_3_nic_in_11 0
switch_nic_in_3_3 0
switch_3_nic_out_3 0
switch_source_nic_in_4 0
switch_nic_out_4_sink 0
switch_nic_out_4_nic_in_0 1
switch_nic_out_4_nic_in_1 0
switch_nic_out_4_nic_in_2 0
switch_nic_out_4_nic_in_3 0
switch_nic_out_4_nic_in_8 0
switch_nic_out_4_nic_in_9 0
switch_nic_out_4_nic_in_10 0
switch_nic_out_4_nic_in_11 0
switch_nic_in_4_4 1
switch_4_nic_out_4 0
switch_nic_in_4_5 0
switch_5_nic_out_4 0
switch_nic_in_4_6 0
switch_6_nic_out_4 1
switch_nic_in_4_7 0
switch_7_nic_out_4 0
switch_4_5 1
switch_4_6 0
switch_4_7 0
switch_5_4 0
switch_5_6 1
switch_5_7 0
switch_6_4 0
switch_6_5 0
switch_6_7 0
switch_7_4 0
switch_7_5 0
switch_7_6 0
switch_source_nic_in_8 0
switch_nic_out_8_sink 0
switch_nic_out_8_nic_in_0 0
switch_nic_out_8_nic_in_1 0
switch_nic_out_8_nic_in_2 0
switch_nic_out_8_nic_in_3 0
switch_nic_out_8_nic_in_4 1
switch_nic_out_8_nic_in_9 0
switch_nic_out_8_nic_in_10 0
switch_nic_out_8_nic_in_11 0
switch_nic_in_8_8 1
switch_8_nic_out_8 1
switch_source_nic_in_9 0
switch_nic_out_9_sink 1
switch_nic_out_9_nic_in_0 0
switch_nic_out_9_nic_in_1 0
switch_nic_out_9_nic_in_2 0
switch_nic_out_9_nic_in_3 0
switch_nic_out_9_nic_in_4 0
switch_nic_out_9_nic_in_8 0
switch_nic_out_9_nic_in_10 0
switch_nic_out_9_nic_in_11 0
switch_nic_in_9_9 1
switch_9_nic_out_9 1
switch_source_nic_in_10 0
switch_nic_out_10_sink 0
switch_nic_out_10_nic_in_0 0
switch_nic_out_10_nic_in_1 0
switch_nic_out_10_nic_in_2 0
switch_nic_out_10_nic_in_3 0
switch_nic_out_10_nic_in_4 0
switch_nic_out_10_nic_in_8 0
switch_nic_out_10_nic_in_9 0
switch_nic_out_10_nic_in_11 0
switch_nic_in_10_10 0
switch_10_nic_out_10 0
switch_source_nic_in_11 0
switch_nic_out_11_sink 0
switch_nic_out_11_nic_in_0 0
switch_nic_out_11_nic_in_1 0
switch_nic_out_11_nic_in_2 0
switch_nic_out_11_nic_in_3 0
switch_nic_out_11_nic_in_4 0
switch_nic_out_11_nic_in_8 0
switch_nic_out_11_nic_in_9 0
switch_nic_out_11_nic_in_10 0
switch_nic_in_11_11 0
switch_11_nic_out_11 0
group_tp_active_0 0
group_tp_active_1 0
group_tp_active_2 0
group_tp_active_3 0
group_tp_active_4 0
group_tp_active_8 0
group_tp_active_9 0
group_tp_active_10 0
group_tp_active_11 0
is_active_0 1
is_active_1 1
is_active_2 0
is_active_3 0
is_active_4 1
is_active_5 1
is_active_6 1
is_active_7 0
is_active_8 1
is_active_9 1
is_active_10 0
is_active_11 0
is_start_zero_0_for_source_nic_in_0 0
is_end_complete_0 0
group_start_1 0
val_end_0 40
group_end_0 40
group_start_2 60
group_start_3 60
group_start_4 24
group_start_8 20
group_start_9 40
group_start_10 60
group_start_11 60
is_start_zero_1_for_source_nic_in_1 1
is_end_complete_1 0
group_start_0 36
val_end_1 20
group_end_1 20
is_start_zero_2_for_source_nic_in_2 0
is_end_complete_2 0
val_end_2 0
group_end_2 0
is_start_zero_3_for_source_nic_in_3 0
is_end_complete_3 0
val_end_3 0
group_end_3 0
is_start_zero_4_for_source_nic_in_4 0
is_start_zero_5_for_source_nic_in_4 0
is_start_zero_6_for_source_nic_in_4 0
is_start_zero_7_for_source_nic_in_4 0
is_end_complete_4 0
is_end_complete_5 0
is_end_complete_6 0
is_end_complete_7 0
val_end_4 28
val_end_5 32
val_end_6 36
val_end_7 0
group_end_4 36
pp_permission_4_5 1
pp_permission_4_6 0
pp_permission_4_7 0
pp_permission_5_4 0
pp_permission_5_6 1
pp_permission_5_7 0
pp_permission_6_4 0
pp_permission_6_5 0
pp_permission_6_7 0
pp_permission_7_4 0
pp_permission_7_5 0
pp_permission_7_6 0
is_start_zero_8_for_source_nic_in_8 0
is_end_complete_8 0
val_end_8 24
group_end_8 24
is_start_zero_9_for_source_nic_in_9 0
is_end_complete_9 1
val_end_9 60
group_end_9 60
is_start_zero_10_for_source_nic_in_10 0
is_end_complete_10 0
val_end_10 0
group_end_10 0
is_start_zero_11_for_source_nic_in_11 0
is_end_complete_11 0
val_end_11 0
group_end_11 0
tp_on_and_switch_nic_out_0_nic_in_4_4 0
tp_on_and_switch_nic_out_1_nic_in_4_4 0
tp_on_and_switch_nic_out_2_nic_in_4_4 0
tp_on_and_switch_nic_out_3_nic_in_4_4 0
tp_on_and_switch_source_nic_in_4_4 0
tp_on_and_switch_nic_out_8_nic_in_4_4 0
tp_on_and_switch_nic_out_9_nic_in_4_4 0
tp_on_and_switch_nic_out_10_nic_in_4_4 0
tp_on_and_switch_nic_out_11_nic_in_4_4 0
